25944.9
99 63 41 43 93 30 38 23 64 15 88 90 73 27 52 59 5 18 39 35 33 76 29 91 78 40 66 14 12 26 32 71 97 62 34 28 56 80 84 85 46 53 94 70 19 61 8 42 58 49 87 44 1 60 31 75 24 51 3 57 22 83 92 89 25 69 81 77 0 6 48 96 10 86 82 65 11 20 54 72 98 45 13 17 74 37 55 68 2 50 79 9 36 47 4 21 16 67 95 7 
